p edge 4506 18
e 120 4021
e 204 2614
e 860 1996
e 860 3233
e 1049 3364
e 1082 1197
e 1278 2375
e 1680 4025
e 1748 1996
e 1748 3233
e 1996 3233
e 2480 4506
e 2515 3224
e 2614 3361
e 2614 3847
e 2614 4357
e 2752 3847
e 3791 4422
